713

C       0.000000000000000      0.000000000000000      9.324999999999999
C       1.230000000000000      0.710140830000000      9.324999999999999
C      18.449999999999999      2.130422490000000      9.324999999999999
C       0.000000000000000      2.840563320000000      9.324999999999999
C      17.219999999999999      4.260844990000000      9.324999999999999
C      18.449999999999999      4.970985820000000      9.324999999999999
C      15.990000000000000      6.391267480000000      9.324999999999999
C      17.219999999999999      7.101408310000000      9.324999999999999
C      14.760000000000000      8.521689970000001      9.324999999999999
C      15.990000000000000      9.231830799999999      9.324999999999999
C      13.529999999999999     10.652112470000000      9.324999999999999
C      14.760000000000000     11.362253300000001      9.324999999999999
C      12.300000000000001     12.782534960000000      9.324999999999999
C      13.529999999999999     13.492675790000000      9.324999999999999
C      11.070000000000000     14.912957450000000      9.324999999999999
C      12.300000000000001     15.623098280000001      9.324999999999999
C       2.460000000000000      0.000000000000000      9.324999999999999
C       3.690000000000000      0.710140830000000      9.324999999999999
C       1.230000000000000      2.130422490000000      9.324999999999999
C       2.460000000000000      2.840563320000000      9.324999999999999
C       0.000000000000000      4.260844990000000      9.324999999999999
C       1.230000000000000      4.970985820000000      9.324999999999999
C      18.449999999999999      6.391267480000000      9.324999999999999
C       0.000000000000000      7.101408310000000      9.324999999999999
C      17.219999999999999      8.521689970000001      9.324999999999999
C      18.449999999999999      9.231830799999999      9.324999999999999
C      15.990000000000000     10.652112470000000      9.324999999999999
C      17.219999999999999     11.362253300000001      9.324999999999999
C      14.760000000000000     12.782534960000000      9.324999999999999
C      15.990000000000000     13.492675790000000      9.324999999999999
C      13.529999999999999     14.912957450000000      9.324999999999999
C      14.760000000000000     15.623098280000001      9.324999999999999
C       4.920000000000000      0.000000000000000      9.324999999999999
C       6.150000000000000      0.710140830000000      9.324999999999999
C       3.690000000000000      2.130422490000000      9.324999999999999
C       4.920000000000000      2.840563320000000      9.324999999999999
C       2.460000000000000      4.260844990000000      9.324999999999999
C       3.690000000000000      4.970985820000000      9.324999999999999
C       1.230000000000000      6.391267480000000      9.324999999999999
C       2.460000000000000      7.101408310000000      9.324999999999999
C       0.000000000000000      8.521689970000001      9.324999999999999
C       1.230000000000000      9.231830799999999      9.324999999999999
C      18.449999999999999     10.652112470000000      9.324999999999999
C       0.000000000000000     11.362253300000001      9.324999999999999
C      17.219999999999999     12.782534960000000      9.324999999999999
C      18.449999999999999     13.492675790000000      9.324999999999999
C      15.990000000000000     14.912957450000000      9.324999999999999
C      17.219999999999999     15.623098280000001      9.324999999999999
C       7.380000000000000      0.000000000000000      9.324999999999999
C       8.609999999999999      0.710140830000000      9.324999999999999
C       6.150000000000000      2.130422490000000      9.324999999999999
C       7.380000000000000      2.840563320000000      9.324999999999999
C       4.920000000000000      4.260844990000000      9.324999999999999
C       6.150000000000000      4.970985820000000      9.324999999999999
C       3.690000000000000      6.391267480000000      9.324999999999999
C       4.920000000000000      7.101408310000000      9.324999999999999
C       2.460000000000000      8.521689970000001      9.324999999999999
C       3.690000000000000      9.231830799999999      9.324999999999999
C       1.230000000000000     10.652112470000000      9.324999999999999
C       2.460000000000000     11.362253300000001      9.324999999999999
C       0.000000000000000     12.782534960000000      9.324999999999999
C       1.230000000000000     13.492675790000000      9.324999999999999
C      18.449999999999999     14.912957450000000      9.324999999999999
C       0.000000000000000     15.623098280000001      9.324999999999999
C       9.840000000000000      0.000000000000000      9.324999999999999
C      11.070000000000000      0.710140830000000      9.324999999999999
C       8.609999999999999      2.130422490000000      9.324999999999999
C       9.840000000000000      2.840563320000000      9.324999999999999
C       7.380000000000000      4.260844990000000      9.324999999999999
C       8.609999999999999      4.970985820000000      9.324999999999999
C       6.150000000000000      6.391267480000000      9.324999999999999
C       7.380000000000000      7.101408310000000      9.324999999999999
C       4.920000000000000      8.521689970000001      9.324999999999999
C       6.150000000000000      9.231830799999999      9.324999999999999
C       3.690000000000000     10.652112470000000      9.324999999999999
C       4.920000000000000     11.362253300000001      9.324999999999999
C       2.460000000000000     12.782534960000000      9.324999999999999
C       3.690000000000000     13.492675790000000      9.324999999999999
C       1.230000000000000     14.912957450000000      9.324999999999999
C       2.460000000000000     15.623098280000001      9.324999999999999
C      12.300000000000001      0.000000000000000      9.324999999999999
C      13.529999999999999      0.710140830000000      9.324999999999999
C      11.070000000000000      2.130422490000000      9.324999999999999
C      12.300000000000001      2.840563320000000      9.324999999999999
C       9.840000000000000      4.260844990000000      9.324999999999999
C      11.070000000000000      4.970985820000000      9.324999999999999
C       8.609999999999999      6.391267480000000      9.324999999999999
C       9.840000000000000      7.101408310000000      9.324999999999999
C       7.380000000000000      8.521689970000001      9.324999999999999
C       8.609999999999999      9.231830799999999      9.324999999999999
C       6.150000000000000     10.652112470000000      9.324999999999999
C       7.380000000000000     11.362253300000001      9.324999999999999
C       4.920000000000000     12.782534960000000      9.324999999999999
C       6.150000000000000     13.492675790000000      9.324999999999999
C       3.690000000000000     14.912957450000000      9.324999999999999
C       4.920000000000000     15.623098280000001      9.324999999999999
C      14.760000000000000      0.000000000000000      9.324999999999999
C      15.990000000000000      0.710140830000000      9.324999999999999
C      13.529999999999999      2.130422490000000      9.324999999999999
C      14.760000000000000      2.840563320000000      9.324999999999999
C      12.300000000000001      4.260844990000000      9.324999999999999
C      13.529999999999999      4.970985820000000      9.324999999999999
C      11.070000000000000      6.391267480000000      9.324999999999999
C      12.300000000000001      7.101408310000000      9.324999999999999
C       9.840000000000000      8.521689970000001      9.324999999999999
C      11.070000000000000      9.231830799999999      9.324999999999999
C       8.609999999999999     10.652112470000000      9.324999999999999
C       9.840000000000000     11.362253300000001      9.324999999999999
C       7.380000000000000     12.782534960000000      9.324999999999999
C       8.609999999999999     13.492675790000000      9.324999999999999
C       6.150000000000000     14.912957450000000      9.324999999999999
C       7.380000000000000     15.623098280000001      9.324999999999999
C      17.219999999999999      0.000000000000000      9.324999999999999
C      18.449999999999999      0.710140830000000      9.324999999999999
C      15.990000000000000      2.130422490000000      9.324999999999999
C      17.219999999999999      2.840563320000000      9.324999999999999
C      14.760000000000000      4.260844990000000      9.324999999999999
C      15.990000000000000      4.970985820000000      9.324999999999999
C      13.529999999999999      6.391267480000000      9.324999999999999
C      14.760000000000000      7.101408310000000      9.324999999999999
C      12.300000000000001      8.521689970000001      9.324999999999999
C      13.529999999999999      9.231830799999999      9.324999999999999
C      11.070000000000000     10.652112470000000      9.324999999999999
C      12.300000000000001     11.362253300000001      9.324999999999999
C       9.840000000000000     12.782534960000000      9.324999999999999
C      11.070000000000000     13.492675790000000      9.324999999999999
C       8.609999999999999     14.912957450000000      9.324999999999999
C       9.840000000000000     15.623098280000001      9.324999999999999
C       3.280000000000000      5.681126650000000     12.675000000000001
C       4.510000000000000      6.391267480000000     12.675000000000001
C       2.050000000000000      7.811549140000000     12.675000000000001
C       3.280000000000000      8.521689970000001     12.675000000000001
C       0.820000000000000      9.941971640000000     12.675000000000001
C       2.050000000000000     10.652112470000000     12.675000000000001
C      19.270000000000000     12.072394129999999     12.675000000000001
C       0.820000000000000     12.782534960000000     12.675000000000001
C      18.039999999999999     14.202816620000000     12.675000000000001
C      19.270000000000000     14.912957450000000     12.675000000000001
C      16.809999999999999     16.333239120000002     12.675000000000001
C      18.039999999999999      0.000000000000000     12.675000000000001
C      15.580000000000000      1.420281660000000     12.675000000000001
C      16.809999999999999      2.130422490000000     12.675000000000001
C      14.350000000000000      3.550704160000000     12.675000000000001
C      15.580000000000000      4.260844990000000     12.675000000000001
C       5.740000000000000      5.681126650000000     12.675000000000001
C       6.970000000000000      6.391267480000000     12.675000000000001
C       4.510000000000000      7.811549140000000     12.675000000000001
C       5.740000000000000      8.521689970000001     12.675000000000001
C       3.280000000000000      9.941971640000000     12.675000000000001
C       4.510000000000000     10.652112470000000     12.675000000000001
C       2.050000000000000     12.072394129999999     12.675000000000001
C       3.280000000000000     12.782534960000000     12.675000000000001
C       0.820000000000000     14.202816620000000     12.675000000000001
C       2.050000000000000     14.912957450000000     12.675000000000001
C      19.270000000000000     16.333239120000002     12.675000000000001
C       0.820000000000000      0.000000000000000     12.675000000000001
C      18.039999999999999      1.420281660000000     12.675000000000001
C      19.270000000000000      2.130422490000000     12.675000000000001
C      16.809999999999999      3.550704160000000     12.675000000000001
C      18.039999999999999      4.260844990000000     12.675000000000001
C       8.199999999999999      5.681126650000000     12.675000000000001
C       9.430000000000000      6.391267480000000     12.675000000000001
C       6.970000000000000      7.811549140000000     12.675000000000001
C       8.199999999999999      8.521689970000001     12.675000000000001
C       5.740000000000000      9.941971640000000     12.675000000000001
C       6.970000000000000     10.652112470000000     12.675000000000001
C       4.510000000000000     12.072394129999999     12.675000000000001
C       5.740000000000000     12.782534960000000     12.675000000000001
C       3.280000000000000     14.202816620000000     12.675000000000001
C       4.510000000000000     14.912957450000000     12.675000000000001
C       2.050000000000000     16.333239120000002     12.675000000000001
C       3.280000000000000      0.000000000000000     12.675000000000001
C       0.820000000000000      1.420281660000000     12.675000000000001
C       2.050000000000000      2.130422490000000     12.675000000000001
C      19.270000000000000      3.550704160000000     12.675000000000001
C       0.820000000000000      4.260844990000000     12.675000000000001
C      10.660000000000000      5.681126650000000     12.675000000000001
C      11.890000000000001      6.391267480000000     12.675000000000001
C       9.430000000000000      7.811549140000000     12.675000000000001
C      10.660000000000000      8.521689970000001     12.675000000000001
C       8.199999999999999      9.941971640000000     12.675000000000001
C       9.430000000000000     10.652112470000000     12.675000000000001
C       6.970000000000000     12.072394129999999     12.675000000000001
C       8.199999999999999     12.782534960000000     12.675000000000001
C       5.740000000000000     14.202816620000000     12.675000000000001
C       6.970000000000000     14.912957450000000     12.675000000000001
C       4.510000000000000     16.333239120000002     12.675000000000001
C       5.740000000000000      0.000000000000000     12.675000000000001
C       3.280000000000000      1.420281660000000     12.675000000000001
C       4.510000000000000      2.130422490000000     12.675000000000001
C       2.050000000000000      3.550704160000000     12.675000000000001
C       3.280000000000000      4.260844990000000     12.675000000000001
C      13.119999999999999      5.681126650000000     12.675000000000001
C      14.350000000000000      6.391267480000000     12.675000000000001
C      11.890000000000001      7.811549140000000     12.675000000000001
C      13.119999999999999      8.521689970000001     12.675000000000001
C      10.660000000000000      9.941971640000000     12.675000000000001
C      11.890000000000001     10.652112470000000     12.675000000000001
C       9.430000000000000     12.072394129999999     12.675000000000001
C      10.660000000000000     12.782534960000000     12.675000000000001
C       8.199999999999999     14.202816620000000     12.675000000000001
C       9.430000000000000     14.912957450000000     12.675000000000001
C       6.970000000000000     16.333239120000002     12.675000000000001
C       8.199999999999999      0.000000000000000     12.675000000000001
C       5.740000000000000      1.420281660000000     12.675000000000001
C       6.970000000000000      2.130422490000000     12.675000000000001
C       4.510000000000000      3.550704160000000     12.675000000000001
C       5.740000000000000      4.260844990000000     12.675000000000001
C      15.580000000000000      5.681126650000000     12.675000000000001
C      16.809999999999999      6.391267480000000     12.675000000000001
C      14.350000000000000      7.811549140000000     12.675000000000001
C      15.580000000000000      8.521689970000001     12.675000000000001
C      13.119999999999999      9.941971640000000     12.675000000000001
C      14.350000000000000     10.652112470000000     12.675000000000001
C      11.890000000000001     12.072394129999999     12.675000000000001
C      13.119999999999999     12.782534960000000     12.675000000000001
C      10.660000000000000     14.202816620000000     12.675000000000001
C      11.890000000000001     14.912957450000000     12.675000000000001
C       9.430000000000000     16.333239120000002     12.675000000000001
C      10.660000000000000      0.000000000000000     12.675000000000001
C       8.199999999999999      1.420281660000000     12.675000000000001
C       9.430000000000000      2.130422490000000     12.675000000000001
C       6.970000000000000      3.550704160000000     12.675000000000001
C       8.199999999999999      4.260844990000000     12.675000000000001
C      18.039999999999999      5.681126650000000     12.675000000000001
C      19.270000000000000      6.391267480000000     12.675000000000001
C      16.809999999999999      7.811549140000000     12.675000000000001
C      18.039999999999999      8.521689970000001     12.675000000000001
C      15.580000000000000      9.941971640000000     12.675000000000001
C      16.809999999999999     10.652112470000000     12.675000000000001
C      14.350000000000000     12.072394129999999     12.675000000000001
C      15.580000000000000     12.782534960000000     12.675000000000001
C      13.119999999999999     14.202816620000000     12.675000000000001
C      14.350000000000000     14.912957450000000     12.675000000000001
C      11.890000000000001     16.333239120000002     12.675000000000001
C      13.119999999999999      0.000000000000000     12.675000000000001
C      10.660000000000000      1.420281660000000     12.675000000000001
C      11.890000000000001      2.130422490000000     12.675000000000001
C       9.430000000000000      3.550704160000000     12.675000000000001
C      10.660000000000000      4.260844990000000     12.675000000000001
C       0.820000000000000      5.681126650000000     12.675000000000001
C       2.050000000000000      6.391267480000000     12.675000000000001
C      19.270000000000000      7.811549140000000     12.675000000000001
C       0.820000000000000      8.521689970000001     12.675000000000001
C      18.039999999999999      9.941971640000000     12.675000000000001
C      19.270000000000000     10.652112470000000     12.675000000000001
C      16.809999999999999     12.072394129999999     12.675000000000001
C      18.039999999999999     12.782534960000000     12.675000000000001
C      15.580000000000000     14.202816620000000     12.675000000000001
C      16.809999999999999     14.912957450000000     12.675000000000001
C      14.350000000000000     16.333239120000002     12.675000000000001
C      15.580000000000000      0.000000000000000     12.675000000000001
C      13.119999999999999      1.420281660000000     12.675000000000001
C      14.350000000000000      2.130422490000000     12.675000000000001
C      11.890000000000001      3.550704160000000     12.675000000000001
C      13.119999999999999      4.260844990000000     12.675000000000001
Nd      9.840000000000000      8.521689970000001     15.375000000000000
O      12.095262290000001      8.521689970000001     16.195848340000001
H      13.006764130000001      8.521689970000001     16.527607880000001
O       8.712368860000000     10.474804410000001     16.195848340000001
H       8.256617930000001     11.264188160000000     16.527607880000001
O       7.584737710000000      4.615461100000000     17.016696690000000
H       7.128986790000000      3.826077350000000     17.348456230000000
O      13.854219790000000     11.154199370000001     17.527341929999999
H      13.563741990000000     11.131883480000001     16.615554400000001
H      13.640001800000000     10.286003060000001     17.868776629999999
O       8.045864699999999     14.200467939999999     19.884030209999999
H       8.107663459999999     14.486890630000000     18.972781179999998
H       8.615490189999999     14.801811960000000     20.363763479999999
O      12.568481190000000      8.361424050000000      1.570829880000000
H      13.008007109999999      8.245845370000000      0.728398650000000
H      13.272444610000001      8.312198020000000      2.217547850000000
O      18.300128720000000     11.728718760000000     16.962624720000001
H      17.775413870000001     12.001927739999999     16.210120220000000
H      19.179919099999999     12.054494280000000     16.772700900000000
O       3.473804570000000     11.616807160000000     20.333874819999998
H       4.211388750000000     11.160676450000000     19.928725230000001
H       3.879152570000000     12.244350740000000     20.932301010000000
O       4.627266940000000     13.889940270000000     16.862526740000000
H       4.650852250000000     13.266232840000001     16.136810109999999
H       5.408440010000000     13.688386189999999     17.377673730000001
O       5.019869130000000      7.719408010000000     17.185426849999999
H       4.278209430000000      7.164645130000000     16.943743430000001
H       4.886061020000000      7.907692780000000     18.114338080000000
O      14.129574710000000     11.108628160000000      4.412088420000000
H      13.695932660000000     11.045458310000001      3.561091370000000
H      13.412558880000001     11.128814840000000      5.045896470000000
O      10.700337500000000      7.778203610000000      4.845490920000000
H      10.041648300000000      8.441583090000000      4.639850380000000
H      10.218526810000000      7.100493760000000      5.319621360000000
O       3.400443900000000      8.872717410000000      4.197254670000000
H       2.734731780000000      8.361364699999999      3.737279000000000
H       2.901526370000000      9.478721589999999      4.745043020000000
O      18.535805150000002      1.987375310000000     19.738993499999999
H      19.041941120000001      2.479775300000000     19.092773359999999
H      18.468507800000001      2.576344720000000     20.490537209999999
O      15.750546160000001      2.405851300000000     17.503963349999999
H      15.425244610000000      1.636671780000000     17.036230929999999
H      16.406697030000000      2.783270230000000     16.918085529999999
O       7.628895520000000     13.611532349999999      1.890293430000000
H       7.356591530000000     14.281467420000000      1.263181490000000
H       8.509144930000000     13.362609950000000      1.608459360000000
O      13.793238310000000     13.806463480000000      1.765969510000000
H      14.275652969999999     13.349469320000001      1.077010680000000
H      13.031273320000000     14.176643680000000      1.320315150000000
O      16.842387920000000      7.758141770000000      4.470983570000000
H      16.770314419999998      8.055958750000000      3.564152660000000
H      17.674603260000001      7.286324850000000      4.503205660000000
O       8.885176030000000     14.829985150000001      4.821785450000000
H       9.633113679999999     14.384507800000000      4.423826840000000
H       8.431989990000000     14.145278350000000      5.313751760000000
O      18.856155909999998     14.313858209999999     19.947279259999998
H      18.799897219999998     14.326173920000000     18.991813340000000
H      19.140505650000001     13.424847880000000     20.159500139999999
O      15.247921520000000     11.514652910000001     20.181013350000001
H      14.434769190000001     11.019381930000000     20.082414260000000
H      15.905658760000000     10.989284310000000     19.725380390000002
O       4.968684530000000     13.802362790000000      4.364482060000000
H       4.966108830000000     13.571235020000000      3.435609000000000
H       4.508883870000000     14.640945900000000      4.404401630000000
O      14.255581790000001      5.025296200000000      4.486931970000000
H      14.777877210000000      5.138187050000000      3.692768890000000
H      13.349659030000000      5.010028530000000      4.178220650000000
O      10.509996900000001      1.195948960000000     17.212506460000000
H      10.382827340000000      1.922248690000000     16.602139000000001
H      10.230695320000001      1.542812240000000     18.059801170000000
O      18.838224409999999     11.517924770000000      4.779636880000000
H       0.108265880000000     11.608776260000001      4.706158740000000
H      18.496689719999999     12.385385449999999      4.562616460000000
O       5.983420100000000      8.498718370000001     20.624877789999999
H       6.794738110000000      8.804156600000001     20.219042340000001
H       5.541787050000000      9.298634030000001     20.910056749999999
O      11.330365190000000     14.431777730000000     17.125171909999999
H      11.555946380000000     14.948275660000000     16.351495709999998
H      11.864856140000001     14.804150560000000     17.826520420000001
O       8.140915880000000     10.622443890000000      4.325718610000000
H       7.966558900000000     10.753666669999999      3.393725020000000
H       8.699067130000000      9.845506420000000      4.358386530000000
O       4.713489020000000      1.804488370000000      4.650644450000000
H       4.657728010000000      1.881861760000000      3.698207620000000
H       5.640239470000000      1.639391840000000      4.824162670000000
O      18.756884520000000      8.240514460000000     20.034103229999999
H      19.356463750000000      7.661130070000000     19.563943340000002
H      19.326609940000001      8.788860010000000     20.573512120000000
O      15.771912190000000     15.159541389999999     17.399170410000000
H      15.934826740000000     14.585957199999999     16.650376810000001
H      16.643252889999999     15.432190620000000     17.686676280000000
O       3.341887050000000      5.544535350000000     20.367887220000000
H       3.286376230000000      5.532326320000000     19.412376190000000
H       3.139835130000000      6.448703530000000     20.608483929999998
O       1.671252490000000     13.579766210000001     20.525738879999999
H       1.758682000000000     12.676446510000000     20.221434020000000
H       1.207501730000000     13.508133200000000     21.360026470000001
O       9.173699539999999      5.516231880000000     20.077479440000001
H       8.565494270000000      5.203908920000000     19.407574560000000
H       9.956544210000001      5.772747510000000     19.590051710000001
O      15.534436570000000      5.696654590000000     20.081482789999999
H      15.470617010000000      5.744615320000000     19.127617669999999
H      15.023982500000001      6.443641010000000     20.394020410000000
O      18.753795199999999     15.105943190000000      1.526265030000000
H      17.922636610000001     15.216617279999999      1.064574120000000
H      18.715578810000000     15.737965630000000      2.244122240000000
O      10.731582460000000     10.660973569999999      1.591903040000000
H      10.861268069999999     10.576350050000000      0.647311940000000
H       9.945862860000000     11.200708590000000      1.678866540000000
O       1.974991520000000      1.651019630000000     19.925120140000001
H       1.969490430000000      1.635397820000000     18.968063440000002
H       2.526054500000000      0.909011060000000     20.174087449999998
O      18.744482919999999      5.511013550000000     17.447141460000001
H      18.854689799999999      5.335584900000000     16.512630320000000
H      18.432963090000001      4.682603460000000     17.811728859999999
O      16.968067600000001     14.375987410000000      4.318851390000000
H      17.541633239999999     14.589519879999999      3.582877070000000
H      17.562153370000001     14.260388660000000      5.060424620000000
O      15.348520980000000      2.336193010000000      5.035982860000000
H      15.044364890000001      2.357769170000000      4.128648640000000
H      14.626855160000000      2.712197960000000      5.540017140000000
O      15.963204910000000      8.989575139999999     17.258094150000002
H      15.046404230000000      9.208769999999999     17.091775299999998
H      16.450611080000002      9.475340240000000     16.592737600000000
O      17.526979480000001     11.118523200000000      1.271559420000000
H      17.108731349999999     11.397447039999999      0.457003200000000
H      16.851761180000000     10.617067010000000      1.728564650000000
O      10.481950910000000     10.511689929999999     20.141304770000001
H      10.914633690000000     10.991671190000000     19.435163530000001
H      11.144869650000000     10.446846640000000     20.828739079999998
O      12.670732599999999      2.346989210000000     20.505812070000001
H      12.035553390000000      1.729311310000000     20.143523210000001
H      13.035899230000000      1.896654980000000     21.267444690000001
O       9.271933689999999      5.698072890000000      1.272451690000000
H       9.534368479999999      6.579550860000000      1.007203860000000
H       8.628943200000000      5.838072990000000      1.967574020000000
O      12.175128350000000      8.141782700000000     19.832212330000001
H      12.594483289999999      7.441416480000000     19.332351930000002
H      12.399969510000000      8.942542420000001     19.358437949999999
O       6.300442470000000      2.007866750000000      1.231773870000000
H       5.494543120000000      1.831826320000000      0.746214550000000
H       6.993346700000000      1.625154690000000      0.693585190000000
O      14.278866219999999      1.284246710000000      1.255829360000000
H      14.338550730000000      0.888687480000000      0.386230320000000
H      14.756434479999999      2.110059340000000      1.177128000000000
O      14.079396380000000     13.847188850000000     20.142940060000001
H      13.897726490000000     12.910502109999999     20.066481849999999
H      13.941995420000000     14.043434570000001     21.069676500000000
O      15.621563230000000      5.125657160000000      1.147080130000000
H      15.473625500000001      4.996486160000000      0.210244430000000
H      14.989053280000000      5.798330340000000      1.399416770000000
O       1.299574770000000      4.262470460000000      4.460621300000000
H       0.508060030000000      4.407975330000000      3.942389130000000
H       1.617673290000000      5.141842670000000      4.664948700000000
O       6.152828300000000      8.184784670000001      1.547649170000000
H       6.809747980000000      8.236309520000001      0.853362800000000
H       6.600977420000000      8.513560560000000      2.326944120000000
O       1.435302000000000      1.971884090000000      1.768193200000000
H       0.828665120000000      2.397950720000000      1.162643230000000
H       2.292821080000000      2.063326080000000      1.352824420000000
O       4.373296070000000     10.441463089999999      1.389473680000000
H       3.601411910000000     10.855111060000000      1.003051580000000
H       4.404645780000000      9.571930020000000      0.990523460000000
O      14.089774490000000      4.838720230000000     17.031214020000000
H      14.277825320000000      5.324546640000000     16.228193820000001
H      14.675141500000001      5.220465200000000     17.685314989999998
O       5.034854060000000      1.190055080000000     17.066681089999999
H       5.821123240000000      1.338312420000000     16.541293260000000
H       4.660041740000000      2.062269410000000     17.189113630000001
O       9.334015760000000      2.260731330000000      4.214452700000000
H       9.590120270000000      2.375738710000000      3.299348540000000
H       9.662226600000000      1.392477400000000      4.448214530000000
O      18.330849579999999      2.145905090000000      1.575196120000000
H      18.162579109999999      1.257659300000000      1.260654700000000
H      18.909615250000002      2.028141010000000      2.328451570000000
O       1.724178120000000     10.550786250000000     17.456239340000000
H       1.669145530000000     11.189286770000001     16.745239800000000
H       1.899836320000000      9.718134969999999     17.017983850000000
O      18.262537460000001      5.179123170000000      4.588539130000000
H      18.264321840000001      4.790445380000000      3.713805890000000
H      19.187968020000000      5.311282390000000      4.794315830000000
O       4.320688730000000      4.462850050000000      1.427685690000000
H       5.069633690000000      4.834401100000000      0.961570790000000
H       3.564716490000000      4.941070160000000      1.087034360000000
O       6.368465540000000      2.438222260000000     20.045740030000001
H       6.398874920000000      2.208112090000000     19.117108550000001
H       5.896532800000000      1.714130540000000     20.457082360000001
O       1.370180670000000      7.386022460000000      1.723714200000000
H       2.144338130000000      7.180118770000000      1.199771700000000
H       1.640433470000000      8.122630780000000      2.271987350000000
O       7.884941040000000      5.002358010000000      4.939227610000000
H       8.007908770000000      4.075195380000000      4.735560640000000
H       8.309857760000000      5.465113640000000      4.217053920000000
O      18.881916990000001      8.946073159999999      1.919837430000000
H       0.054604200000000      8.590952520000000      1.668748420000000
H      18.952322140000000      9.095335439999999      2.862703130000000
O       1.706358570000000     16.330468880000002     16.684633110000000
H       2.153395240000000     16.863637879999999     16.027274100000000
H       1.882711020000000     16.774436040000001     17.514105720000000
O      12.540717490000000     16.712342970000002     19.874003880000000
H      12.870770810000000      0.103782300000000     19.087728580000000
H      13.011008720000000     15.879139139999999     19.902802760000000
O      19.489917049999999      0.004048200000000      4.080404010000000
H       0.507838930000000     16.424005540000000      3.879204760000000
H      18.694560339999999     16.633756609999999      3.744970860000000
O       0.065856410000000      7.964554950000000      6.534063280000000
H      19.384767300000000      8.443460580000000      5.788076760000000
H      18.978573590000000      7.678036320000000      7.029458080000000
O       5.456587910000000     15.515255200000000      0.992214900000000
H       5.703542170000000     15.718165890000000      0.089955130000000
H       5.452746770000000     16.363122570000002      1.436442320000000
O       6.475730870000000     15.877433600000000     16.174678400000001
H       6.344205940000000     16.535607010000000     15.492226360000000
H       5.596374640000000     15.551612950000001     16.366525639999999
O       2.082814970000000     11.913164730000000      4.162873880000000
H       1.383539180000000     12.556421300000000      4.046829970000000
H       1.663301680000000     11.069533849999999      3.993973380000000
O      10.945656550000001     12.895631490000000      5.691143280000000
H      11.268822900000000     13.761260750000000      5.441180650000000
H      11.340753830000001     12.729926280000001      6.547105750000000
O      15.170408860000000     16.145157829999999      3.660306910000000
H      15.093727630000000     16.723371029999999      2.901346230000000
H      14.299647280000000     15.759665130000000      3.757268260000000
O       3.649830650000000      7.875699700000000      0.027100370000000
H       3.907913150000000      8.059094569999999     21.123777850000000
H       2.880681460000000      7.311567900000000     21.947121119999998
O      10.513886610000000     15.041353510000000      1.815187760000000
H      10.700498750000000     14.672325369999999      0.951923040000000
H      10.444287550000000     14.280320379999999      2.391569900000000
O      19.236538480000000      3.423317780000000     15.250266699999999
H      19.648446069999999      2.568149980000000     15.126767700000000
H      18.687331629999999      3.539371790000000     14.474937649999999
O      12.890583790000001     16.909305069999998      6.244799630000000
H      12.674255179999999      0.130280030000000      5.350623890000000
H      13.528607470000001      0.515791410000000      6.539471370000000
O       0.342034270000000      5.507238560000000     21.408150460000002
H      19.437063439999999      5.185110750000000     20.722384730000002
H       0.125029060000000      6.435728860000000     21.492093010000001
O       5.031093560000000      5.148131900000000     16.103077490000000
H       4.739605430000000      5.543168510000000     15.281364280000000
H       4.936962030000000      5.845934500000000     16.751492960000000
O       8.058524150000000      7.204051160000000     18.079741769999998
H       8.619057789999999      7.208406750000000     17.303845570000000
H       7.822493000000000      8.122439790000000     18.210445440000001
O       1.828845560000000      4.380954230000000     17.333843739999999
H       1.617729930000000      4.621371850000000     16.431701069999999
H       1.161386270000000      3.738011310000000     17.573331400000001
O      16.756509189999999      0.005667030000000      0.389131810000000
H      16.441149119999999     16.812103170000000     21.516986469999999
H      15.972976320000001      0.293365500000000      0.857680280000000
O      12.384600499999999      3.389183100000000      1.421566960000000
H      12.747440559999999      3.488771400000000      0.541418620000000
H      13.135594449999999      3.499764610000000      2.004672150000000
O       4.791646420000000     11.107352190000000     17.835090420000000
H       5.444192980000000     11.675988840000000     17.426351879999999
H       3.966522280000000     11.347031940000001     17.413242570000001
O       8.723614359999999      0.815198850000000      0.836480660000000
H       8.734541780000001      1.273659610000000     21.996286540000000
H       9.037255430000000      1.463048330000000      1.467473660000000
O       1.625915620000000      8.771504790000000     19.775818130000001
H       1.772317930000000      8.064217409999999     19.147691739999999
H       2.467774560000000      9.224008090000000     19.828221559999999
O       1.230831030000000     13.658000820000000     16.864947529999998
H       1.172874620000000     13.097005590000000     16.091541270000000
H       1.603421830000000     13.094304599999999     17.542925770000000
O      13.498733809999999     16.892144349999999     16.438830930000002
H      13.558186859999999      0.792455420000000     16.290020840000000
H      13.744665440000000     16.501033560000000     15.600510090000000
O       1.104758520000000     14.533367630000001      4.961909260000000
H       1.022614030000000     14.613559600000000      4.011618050000000
H       1.689213400000000     15.248464909999999      5.213464850000000
O      14.418261420000000     13.982005559999999      6.889563890000000
H      14.132003140000000     14.890255780000000      6.792767280000000
H      15.017833650000000     13.997558750000000      7.635555230000000
O      15.790333199999999      8.164973110000000      0.396001960000000
H      14.950453130000000      8.616826570000001      0.314382320000000
H      15.586371659999999      7.246064540000000      0.222109540000000
O      11.161920950000001      4.837396060000000     18.139765780000001
H      11.809654920000000      5.163550800000000     17.515029340000002
H      10.515100660000000      4.383264150000000     17.599747659999998
O      18.810625840000000      0.428503950000000     15.277910029999999
H      18.010857080000001     17.017652750000000     15.012814130000001
H      19.506839830000001     16.828149719999999     15.147050450000000
O       7.808961950000000      0.756517670000000      6.112085600000000
H       8.052857560000000      0.208862780000000      5.365881280000000
H       7.832270780000000      1.650693580000000      5.771295390000000
O       0.583870630000000     11.511443220000000      0.986778500000000
H       1.473014760000000     11.226225769999999      0.776289640000000
H       0.050047410000000     11.188389790000000      0.260898970000000
O       3.293639550000000     16.566595759999998      5.026708430000000
H       3.198794350000000     16.580123350000001      4.074315010000000
H       4.091094910000000      0.024978980000000      5.195618230000000
O       8.150476410000000      6.739536470000000      6.890537740000000
H       8.172486599999999      6.768683830000000      5.934034830000000
H       8.045791299999999      7.653173460000000      7.156132040000000
O       4.730725410000000      5.315814530000000      5.633046430000000
H       3.795135920000000      5.132523390000000      5.547556580000000
H       5.012580060000000      5.543619470000000      4.747103600000000
O      16.211952810000000     12.300574640000001      5.974035040000000
H      15.469441350000000     12.822792440000001      5.670395230000000
H      15.975880810000000     12.043226170000001      6.865255340000000
O      17.929832070000000     14.286875020000000     15.606425280000000
H      18.833593319999999     13.985962870000000     15.512089080000001
H      17.591572759999998     14.314926470000000     14.711424940000001
O       6.499177900000000     15.442425150000000      5.866854330000000
H       6.638780660000000     16.318727859999999      5.507916350000000
H       7.333953190000000     14.993111499999999      5.734569420000000
O      17.634758200000000     14.439056709999999      6.933234860000000
H      17.791581799999999     13.496402090000000      6.878094520000000
H      18.497617219999999     14.816261900000001      7.104764420000000
O       2.330407970000000      3.611395580000000      6.842054880000000
H       2.674436620000000      4.209563420000000      6.178676140000000
H       2.651018740000000      3.963723680000000      7.672299120000000
O       5.983315760000000      5.421574950000000     21.145507150000000
H       5.321234580000000      5.957413350000000     20.708749139999998
H       5.848096340000000      4.540826670000000     20.795893039999999
O       0.269587470000000      1.367258230000000      6.868320100000000
H       1.220726370000000      1.461648790000000      6.816773380000000
H      19.607044080000001      2.139503590000000      6.418283480000000
O      10.068990930000000      0.091116650000000     20.645102359999999
H       9.820316960000000      0.238572190000000     19.732605809999999
H      10.014479959999999      0.956057970000000     21.051472780000001
O      19.418828720000000      4.624993220000000      2.168824390000000
H      19.142204719999999      5.133346660000000      1.406402080000000
H      18.648249060000001      4.604896540000000      2.736305640000000
O      12.858587249999999      3.277610630000000      6.504399920000000
H      13.073919310000001      3.478845220000000      5.593703160000000
H      12.198024780000001      3.927568960000000      6.744073090000000
O      15.689113910000000     12.343370480000001     15.188925879999999
H      16.110964809999999     11.683642700000000     14.638441620000000
H      14.751787300000000     12.181529189999999     15.081883530000001
O       4.624687380000000     14.148578620000000     20.861533829999999
H       4.407622890000000     14.756257930000000     20.154539700000001
H       4.615867120000000     14.687616670000001     21.652477590000000
O       8.748316020000001      8.600413760000000      2.580163250000000
H       8.957549739999999      8.975750260000000      1.724841320000000
H       8.234454810000001      7.818104910000000      2.379735330000000
O       4.941256440000000     11.085444640000000      4.671347430000000
H       4.533588460000000     10.692826200000001      3.899408700000000
H       4.909140850000000     12.027811620000000      4.506590320000000
O      12.093080100000000      9.905534429999999      5.579982220000000
H      12.129919360000001      8.980399390000001      5.337083340000000
H      12.902644889999999     10.277861809999999      5.230398150000000
O       7.557959120000000     11.355456309999999     21.754381689999999
H       7.607259680000000     11.676213239999999     20.853872780000000
H       8.470842050000000     11.243107640000000      0.019437120000000
O       9.889020459999999      3.421816010000000      6.930228190000000
H       9.651339210000000      4.314616820000000      6.679936010000000
H       9.426810220000000      2.865658150000000      6.303106220000000
O      12.306493610000000      0.210333140000000      3.145139310000000
H      12.273137580000000     16.565378200000001      2.480824390000000
H      11.577311370000000      0.790552880000000      2.926346820000000
O       2.740377900000000     10.430693910000000      6.738621930000000
H       2.310778670000000     11.259516359999999      6.527128010000000
H       3.254499510000000     10.620286100000000      7.523456700000000
O       6.180382120000000      8.508037320000000      4.764742080000000
H       6.822244970000000      7.846733700000000      4.506050290000000
H       5.370429300000000      8.016257240000000      4.900243420000000
O       2.442433000000000      2.069320370000000     15.864911859999999
H       2.641040490000000      2.518826360000000     15.043491590000000
H       3.263279500000000      1.641717510000000     16.109040210000000
O       7.739386030000000     10.510868990000001     18.937576610000001
H       7.992089090000000     10.144977100000000     18.089935100000002
H       7.748042400000000     11.458401170000000     18.802152509999999
O       7.955475520000000     16.928596129999999     19.108254620000000
H       8.001388439999999     16.948341200000002     18.152360290000001
H       7.034927140000000     16.750274910000002     19.300671000000001
O      13.180767599999999      6.857796780000000      6.556150860000000
H      12.584255580000001      6.257690420000000      6.108627000000000
H      12.652836969999999      7.244354680000000      7.254788170000000
O      16.082319880000000      0.232841300000000     19.705979820000000
H      16.769298129999999      0.359172720000000     19.051508210000001
H      15.871884850000001      1.116865680000000     20.006728590000002
O       3.427403710000000      9.320703630000001     15.718113049999999
H       2.530808360000000      9.645869279999999     15.636774700000000
H       3.929006630000000     10.074819170000000     16.027848570000000
O      14.941823120000000     10.562598160000000      1.703054140000000
H      14.490882190000001     10.526152090000000      0.859516470000000
H      14.302753900000001     10.951474460000000      2.300212080000000
O      18.398695159999999     10.858096860000000     19.770689430000001
H      17.576729350000001     11.088472650000000     19.337640879999999
H      18.550565580000001      9.944951379999999     19.527106710000002
O       9.891760680000001      4.393416720000000     15.429998330000000
H      10.833550630000000      4.478699780000000     15.281706979999999
H       9.639873630000000      3.615684880000000     14.932084730000000
O       9.902566009999999      8.407172559999999      0.087118750000000
H       9.560778450000001      8.404675530000000     21.193023190000002
H      10.145984260000001      7.496521740000000      0.253535350000000
O       5.781875180000000     11.454046790000000     15.447448830000001
H       5.120119970000000     12.143595440000000     15.394208430000001
H       6.175716320000000     11.431536430000000     14.575316800000000
O       7.532110490000000     12.905061860000000      6.724266930000000
H       7.626413860000000     12.967417840000000      5.773766830000000
H       7.996606620000000     12.101806910000001      6.959334300000000
O       7.907688870000000      1.300451720000000     16.119404050000000
H       7.197258690000000      0.659012600000000     16.110648250000001
H       8.705324620000001      0.774372370000000     16.176408980000001
O      10.374258749999999     13.020515019999999      0.111733890000000
H      11.051440780000000     12.635714390000000     21.555330420000001
H      10.613344769999999     13.945135960000000      0.176122040000000
O       3.464460940000000     13.405059530000001      6.875960350000000
H       2.743186250000000     13.835042220000000      6.416493770000000
H       3.606088260000000     13.941716840000000      7.655814490000000
O      11.028651410000000     11.842210430000000     17.507308089999999
H      10.514768419999999     12.649533849999999     17.487686690000000
H      11.931420650000000     12.135316370000000     17.631116200000001
O      15.871840219999999      3.061763370000000     21.111072510000000
H      15.528736250000000      3.363627690000000     20.270008040000000
H      15.959448009999999      2.114132540000000     21.008347029999999
O      15.695635990000000      9.167966870000001      6.813003080000000
H      15.298447590000000      8.655697160000001      6.108692810000000
H      16.135384550000001      8.519479199999999      7.362836500000000
O       0.026676720000000      8.472081970000000     16.561797880000000
H      19.311580670000001      9.268810650000001     16.207743709999999
H      18.989784799999999      7.838208190000000     16.584199840000000
O      15.683931830000001      1.071902860000000     15.104903050000001
H      16.144317170000001      0.559236050000000     14.440486060000000
H      14.991633240000001      0.490547480000000     15.419514580000000
O      16.526569769999998     16.995151470000000      6.437395670000000
H      17.116332920000001     16.261701500000001      6.262860820000000
H      16.656058519999998      0.148305100000000      7.365209800000000
O      10.531171590000000     11.753251479999999     14.943434030000001
H      10.534860040000000     11.495679980000000     14.021547290000001
H      10.278902520000001     10.958578640000001     15.413633170000001
O       1.367932620000000     16.569005140000002      0.314093600000000
H       1.518409960000000     16.680247099999999     21.375363799999999
H       1.147943290000000     15.642776480000000      0.413778140000000
O      13.431462900000000     14.445441320000000     15.259588030000000
H      12.881798979999999     14.695279220000000     14.516834749999999
H      12.952617310000001     14.756451119999999     16.027840359999999
O      16.389012610000002      5.561600130000000     16.012351580000001
H      16.007219700000000      5.305938830000000     15.172647270000001
H      17.311579640000001      5.725276020000000     15.816616740000001
O      14.817916029999999      8.825834410000001     19.596403020000000
H      15.604971760000000      9.312269140000000     19.351135060000001
H      14.212291069999999      9.494644200000000     19.916002330000001
O       9.629230300000000      3.254413950000000      0.344792230000000
H       8.826252970000001      3.709098350000000      0.090388320000000
H       9.332054619999999      2.538844900000000      0.906823710000000
O       3.512566580000000     12.899854899999999      1.047535010000000
H       4.414878640000000     12.662921219999999      0.833228620000000
H       2.983660630000000     12.197605800000000      0.668936890000000
O      16.789899830000000      4.329621820000000      6.745179680000000
H      17.063189160000000      3.862692640000000      5.955545640000000
H      16.252278310000001      3.698305530000000      7.223337290000000
O       3.156359750000000     12.193804730000000     15.450569630000000
H       3.706443810000000     12.077908910000000     14.675839010000001
H       2.292905320000000     12.414063770000000     15.101049620000000
O       9.381690819999999     15.687959149999999     15.927653840000000
H       9.289380850000001     15.538485780000000     14.986713659999999
H       9.450877770000000     16.638746050000002     16.013963029999999
O       3.253584860000000     15.942308649999999     19.107096590000001
H       2.893928390000000     16.353304789999999     18.320991490000001
H       2.496233600000000     15.812281660000000     19.677836370000001
O       6.228858720000000     16.469333209999999      3.368255110000000
H       6.209464590000000     16.052441460000001      2.506827810000000
H       5.446691380000000     17.020825720000001      3.385636180000000
